RT is False
Default write of storage_offers_DA.csv just to have a file (but constraint should be inactive)
Reading model...
...model read.
creating competitive generators file...
...competitive generators recorded.
Loading data...
.. day-ahead data with real-time VRE data read.
Compiling instance...
...instance created.
Creating Offer Mitigation (model will solve as dispatch if TRUE)...
Solving...

Welcome to IBM(R) ILOG(R) CPLEX(R) Interactive Optimizer 12.9.0.0
  with Simplex, Mixed Integer & Barrier Optimizers
5725-A06 5725-A29 5724-Y48 5724-Y49 5724-Y54 5724-Y55 5655-Y21
Copyright IBM Corp. 1988, 2019.  All Rights Reserved.

Type 'help' for a list of available commands.
Type 'help' followed by a command name for more
information on commands.

CPLEX> Logfile 'cplex.log' closed.
Logfile 'C:\Users\llavin\Desktop\test919\logs\tmpbtoyayrb.cplex.log' open.
CPLEX> New value for parallel optimization mode: -1
CPLEX> New value for mixed integer optimality gap tolerance: 0.01
CPLEX> New value for integrality tolerance: 1e-09
CPLEX> New value for feasibility tolerance: 0.01
CPLEX> New value for deterministic time limit in ticks: 75000
CPLEX> Problem 'C:\Users\llavin\Desktop\test919\logs\tmpybplnvt5.pyomo.lp' read.
Read time = 0.06 sec. (3.04 ticks)
CPLEX> Problem name         : C:\Users\llavin\Desktop\test919\logs\tmpybplnvt5.pyomo.lp
Objective sense      : Minimize
Variables            :   26081  [Nneg: 1,  Box: 21616,  Free: 4464]
Objective nonzeros   :    2496
Linear constraints   :   27515  [Less: 14006,  Greater: 4416,  Equal: 9093]
  Nonzeros           :   89267
  RHS nonzeros       :   12271

Variables            : Min LB: -5000.000        Max UB: 1000000.       
Objective nonzeros   : Min   : 15.73158         Max   : 124.0997       
Linear constraints   :
  Nonzeros           : Min   : 0.8500000        Max   : 3000.000       
  RHS nonzeros       : Min   : 0.008333333      Max   : 5000.000       
CPLEX> CPXPARAM_Parallel                                -1
CPXPARAM_Simplex_Tolerances_Feasibility          0.01
CPXPARAM_DetTimeLimit                            75000
CPXPARAM_MIP_Tolerances_MIPGap                   0.01
CPXPARAM_MIP_Tolerances_Integrality              1.0000000000000001e-09
Parallel mode: opportunistic, using up to 32 threads for concurrent optimization.
Tried aggregator 1 time.
LP Presolve eliminated 21353 rows and 15463 columns.
Aggregator did 771 substitutions.
Reduced LP has 5391 rows, 9847 columns, and 31810 nonzeros.
Presolve time = 0.06 sec. (30.45 ticks)
Symmetry aggregator did 5563 additional substitutions.

Iteration log . . .
Iteration:     1   Dual objective     =             0.000000
Perturbation started.
Iteration:   101   Dual objective     =             0.000000
Iteration:   331   Dual objective     =             1.211998
Iteration:   579   Dual objective     =             1.725953
Iteration:   829   Dual objective     =             1.865659
Iteration:  1023   Dual objective     =             1.978034
Iteration:  1298   Dual objective     =             2.028334
Iteration:  1554   Dual objective     =             2.060726
Iteration:  1775   Dual objective     =         77681.897280
Iteration:  1968   Dual objective     =        187853.341936
Iteration:  2174   Dual objective     =        209511.844114
Iteration:  2373   Dual objective     =        213374.179420
Iteration:  2649   Dual objective     =        214255.356047
Iteration:  3080   Dual objective     =        215386.305443
Removing perturbation.
Dual superbasis not built.
Using devex.

Primal simplex solved model.


Primal simplex - Optimal:  Objective =  2.1538414963e+05
Solution time =    0.20 sec.  Iterations = 1677 (1092)
Deterministic time = 82.24 ticks  (405.11 ticks/sec)

CPLEX> Solution written to file 'C:\Users\llavin\Desktop\test919\logs\tmp8sxhk1y3.cplex.sol'.
CPLEX> Exporting results... 
...storage offer mitigation file created
Converting model to MPEC...
...converted
NOTE: initial MIP solve with only storage competitive to get feasible solution
Solving...

Welcome to IBM(R) ILOG(R) CPLEX(R) Interactive Optimizer 12.9.0.0
  with Simplex, Mixed Integer & Barrier Optimizers
5725-A06 5725-A29 5724-Y48 5724-Y49 5724-Y54 5724-Y55 5655-Y21
Copyright IBM Corp. 1988, 2019.  All Rights Reserved.

Type 'help' for a list of available commands.
Type 'help' followed by a command name for more
information on commands.

CPLEX> Logfile 'cplex.log' closed.
Logfile 'C:\Users\llavin\Desktop\test919\logs\tmp44otngoo.cplex.log' open.
CPLEX> New value for parallel optimization mode: -1
CPLEX> New value for mixed integer optimality gap tolerance: 0.01
CPLEX> New value for integrality tolerance: 1e-09
CPLEX> New value for feasibility tolerance: 0.01
CPLEX> New value for deterministic time limit in ticks: 75000
CPLEX> Problem 'C:\Users\llavin\Desktop\test919\logs\tmpomew8fmc.pyomo.lp' read.
Read time = 0.23 sec. (14.78 ticks)
CPLEX> Problem name         : C:\Users\llavin\Desktop\test919\logs\tmpomew8fmc.pyomo.lp
Objective sense      : Maximize
Variables            :   53805  [Nneg: 1,  Box: 22000,  Free: 4464,
                                 Binary: 27340]
Objective nonzeros   :    8980
Linear constraints   :  123205  [Less: 41346,  Greater: 59096,  Equal: 22763]
  Nonzeros           :  291801
  RHS nonzeros       :   67491

Variables            : Min LB: -5000.000        Max UB: 1000000.       
Objective nonzeros   : Min   : 0.008333333      Max   : 722.0000       
Linear constraints   :
  Nonzeros           : Min   : 0.008333333      Max   : 1000000.       
  RHS nonzeros       : Min   : 0.008333333      Max   : 1000000.       
CPLEX> CPXPARAM_Parallel                                -1
CPXPARAM_Simplex_Tolerances_Feasibility          0.01
CPXPARAM_DetTimeLimit                            75000
CPXPARAM_MIP_Tolerances_MIPGap                   0.01
CPXPARAM_MIP_Tolerances_Integrality              1.0000000000000001e-09
Tried aggregator 3 times.
MIP Presolve eliminated 88627 rows and 18927 columns.
MIP Presolve added 3402 rows and 0 columns.
MIP Presolve modified 24842 coefficients.
Aggregator did 13006 substitutions.
Reduced MIP has 24974 rows, 21316 columns, and 71249 nonzeros.
Reduced MIP has 8417 binaries, 0 generals, 0 SOSs, and 0 indicators.
Presolve time = 0.28 sec. (173.67 ticks)
Probing fixed 397 vars, tightened 2809 bounds.
Probing time = 1.22 sec. (880.73 ticks)
Tried aggregator 2 times.
MIP Presolve eliminated 895 rows and 796 columns.
MIP Presolve modified 2192 coefficients.
Aggregator did 41 substitutions.
Reduced MIP has 24038 rows, 20479 columns, and 68540 nonzeros.
Reduced MIP has 8019 binaries, 0 generals, 0 SOSs, and 0 indicators.
Presolve time = 0.09 sec. (66.48 ticks)
Probing time = 0.03 sec. (15.73 ticks)
Clique table members: 6440.
MIP emphasis: balance optimality and feasibility.
MIP search method: dynamic search.
Parallel mode: opportunistic, using up to 32 threads.
Root relaxation solution time = 0.50 sec. (570.89 ticks)

        Nodes                                         Cuts/
   Node  Left     Objective  IInf  Best Integer    Best Bound    ItCnt     Gap

      0     0     7891.3477   699                   7891.3477     7137         
      0     0     7891.3477   582                   Cuts: 766     7529         
      0     0     7891.0647   472                   Cuts: 406     7753         
      0     0     7890.8519   373                   Cuts: 262     7885         
      0     0     7890.8519   344                   Cuts: 147     7971         
      0     0     7890.8519   301                   Cuts: 124     8044         
      0     0     7890.8519   267                    Cuts: 71     8076         
      0     0     7890.8519   254                    Cuts: 86     8102         
      0     0     7890.8519   238                    Cuts: 66     8123         
      0     0     7890.8519   235                    Cuts: 39     8130         
      0    14    infeasible                         7889.5956     8272         
Elapsed time = 9.47 sec. (6270.87 ticks, tree = 0.02 MB, solutions = 0)
*   105    41      integral     0     7820.3712     7887.0688     8486    0.85%
*   130    43      integral     0     7822.0658     7887.0688     8497    0.83%

Clique cuts applied:  19
Implied bound cuts applied:  26
Flow cuts applied:  444
Mixed integer rounding cuts applied:  20
Gomory fractional cuts applied:  20

Root node processing (before b&c):
  Real time             =    8.61 sec. (6264.35 ticks)
Parallel b&c, 32 threads:
  Real time             =    1.78 sec. (235.79 ticks)
  Sync time (average)   =    0.39 sec.
  Wait time (average)   =    0.00 sec.
                          ------------
Total (root+branch&cut) =   10.39 sec. (6500.14 ticks)

Solution pool: 5 solutions saved.

MIP - Integer optimal, tolerance (0.01/1e-06):  Objective =  7.8220657839e+03
Current MIP best bound =  7.8812500188e+03 (gap = 59.1842, 0.76%)
Solution time =   10.39 sec.  Iterations = 9336  Nodes = 168 (12)
Deterministic time = 6500.29 ticks  (625.57 ticks/sec)

CPLEX> Incumbent solution written to file 'C:\Users\llavin\Desktop\test919\logs\tmp76oiz1nl.cplex.sol'.
CPLEX> NOTE: no warmstart specified for MIP iteration, default behavior is true
NOTE: resolving with all competitive generators using storage-only solution to warmstart
Solving...

Welcome to IBM(R) ILOG(R) CPLEX(R) Interactive Optimizer 12.9.0.0
  with Simplex, Mixed Integer & Barrier Optimizers
5725-A06 5725-A29 5724-Y48 5724-Y49 5724-Y54 5724-Y55 5655-Y21
Copyright IBM Corp. 1988, 2019.  All Rights Reserved.

Type 'help' for a list of available commands.
Type 'help' followed by a command name for more
information on commands.

CPLEX> Logfile 'cplex.log' closed.
Logfile 'C:\Users\llavin\Desktop\test919\logs\tmpu51rk_w0.cplex.log' open.
CPLEX> New value for parallel optimization mode: -1
CPLEX> New value for mixed integer optimality gap tolerance: 0.01
CPLEX> New value for integrality tolerance: 1e-09
CPLEX> New value for feasibility tolerance: 0.01
CPLEX> New value for deterministic time limit in ticks: 75000
CPLEX> Problem 'C:\Users\llavin\Desktop\test919\logs\tmpu10iyrbv.pyomo.lp' read.
Read time = 0.23 sec. (14.81 ticks)
CPLEX> MIP start file 'C:\Users\llavin\Desktop\test919\logs\tmp_02sjx5b.cplex.mst' read.
CPLEX> Problem name         : C:\Users\llavin\Desktop\test919\logs\tmpu10iyrbv.pyomo.lp
Objective sense      : Maximize
Variables            :   54525  [Nneg: 1,  Box: 22720,  Free: 4464,
                                 Binary: 27340]
Objective nonzeros   :    9676
Linear constraints   :  123205  [Less: 41346,  Greater: 59096,  Equal: 22763]
  Nonzeros           :  291801
  RHS nonzeros       :   67491

Variables            : Min LB: -5000.000        Max UB: 1000000.       
Objective nonzeros   : Min   : 0.008333333      Max   : 722.0000       
Linear constraints   :
  Nonzeros           : Min   : 0.008333333      Max   : 1000000.       
  RHS nonzeros       : Min   : 0.008333333      Max   : 1000000.       
CPLEX> CPXPARAM_Parallel                                -1
CPXPARAM_Simplex_Tolerances_Feasibility          0.01
CPXPARAM_DetTimeLimit                            75000
CPXPARAM_MIP_Tolerances_MIPGap                   0.01
CPXPARAM_MIP_Tolerances_Integrality              1.0000000000000001e-09
Warning:  No solution found from 1 MIP starts.
Retaining values of one MIP start for possible repair.
Tried aggregator 3 times.
MIP Presolve eliminated 88627 rows and 19647 columns.
MIP Presolve added 3402 rows and 0 columns.
MIP Presolve modified 24842 coefficients.
Aggregator did 13006 substitutions.
Reduced MIP has 24974 rows, 21316 columns, and 71249 nonzeros.
Reduced MIP has 8417 binaries, 0 generals, 0 SOSs, and 0 indicators.
Presolve time = 0.28 sec. (174.03 ticks)
Probing fixed 397 vars, tightened 2809 bounds.
Probing time = 1.20 sec. (880.73 ticks)
Tried aggregator 2 times.
MIP Presolve eliminated 895 rows and 796 columns.
MIP Presolve modified 2192 coefficients.
Aggregator did 41 substitutions.
Reduced MIP has 24038 rows, 20479 columns, and 68540 nonzeros.
Reduced MIP has 8019 binaries, 0 generals, 0 SOSs, and 0 indicators.
Presolve time = 0.11 sec. (66.50 ticks)
Probing time = 0.03 sec. (15.73 ticks)
Clique table members: 6440.
MIP emphasis: balance optimality and feasibility.
MIP search method: dynamic search.
Parallel mode: opportunistic, using up to 32 threads.
Root relaxation solution time = 0.47 sec. (318.21 ticks)

        Nodes                                         Cuts/
   Node  Left     Objective  IInf  Best Integer    Best Bound    ItCnt     Gap

      0     0    65711.3856  1784                  65711.3856     6836         
      0     0    63622.0040   593                   Cuts: 861     7278         
      0     0    63502.6946   458                   Cuts: 411     7420         
      0     0    63498.9119   408                   Cuts: 258     7525         
      0     0    63496.4918   358                   Cuts: 139     7592         
      0     0    63496.4918   340                   Cuts: 118     7643         
      0     0    63496.4918   308                    Cuts: 67     7663         
      0     0    63496.4918   305                    Cuts: 46     7680         
      0     0    63496.4918   295                    Cuts: 34     7690         
      0     0    63496.4918   290                    Cuts: 29     7698         
Repair heuristic found nothing.
      0    22    57853.6954   259                     Cuts: 7     7817         
Elapsed time = 10.52 sec. (5899.45 ticks, tree = 0.04 MB, solutions = 0)
    439   175    49812.1290   256                  62395.8726     9263         
    998   817    42240.4696   221                  62395.8726    14052         
   1903  1194    40849.7549   201                  62395.8726    15971         
   2935  2392    40268.4366   205                  62395.8726    17912         
   3722  2411    40268.4366   188                  62395.8726    17943         
   4617  3143    37971.3491   190                  62395.8726    18882         
*  5922  3321      integral     0    32828.8226    62395.8726    19247   90.06%
*  6721  3968      integral     0    42240.4696    62395.8726    20159   47.72%
   7609  2681    38654.5123   140    42240.4696    62395.8726    20571   47.72%
   9114  2845        cutoff          42240.4696    57389.4518    32386   35.86%
Elapsed time = 34.42 sec. (14184.09 ticks, tree = 27.91 MB, solutions = 18)
  10135   633    43171.4208    74    42240.4696    52473.3201    37048   24.23%
  11447   888    42960.3944    71    42240.4696    52463.8467    39353   24.20%
  14508  2437    42799.2500    65    42240.4696    50155.2094    51640   18.74%
  17545  4481    42908.2243    70    42240.4696    50017.8383    66795   18.41%
  20502  6710    42511.8319    53    42240.4696    49923.7003    85629   18.19%
  23557  8353    42520.1510    68    42240.4696    49923.7003    95822   18.19%
  26479  8453    42581.6924    60    42240.4696    49923.7003    96280   18.19%
  28803  8039    45446.9646    85    42240.4696    49921.3175    93615   18.18%
  31364  8872    48222.5494    94    42240.4696    49921.3175    99040   18.18%
  33984 10352    42468.6158    75    42240.4696    49921.3175   109295   18.18%
Elapsed time = 84.89 sec. (23724.86 ticks, tree = 104.24 MB, solutions = 18)
  35993 12548    46532.0928    88    42240.4696    49921.3175   122923   18.18%
  38305 11483    42758.8309    48    42240.4696    49921.3175   116622   18.18%
  40249 13704    46549.3255    98    42240.4696    49921.3175   131159   18.18%
  42334 20162    48230.1519   111    42240.4696    49921.3175   173120   18.18%
  44605 16814    42550.1151    62    42240.4696    49921.3175   151135   18.18%
  47190 11891    47013.6439    90    42240.4696    49921.3175   120547   18.18%
  49464 20147    42911.8326    63    42240.4696    49891.3129   173809   18.11%
  51646 20298    42277.7091    27    42240.4696    49350.6873   174365   16.83%
  53470 15004    48674.2074    89    42240.4696    49350.6873   140641   16.83%
  55196 24024    47334.6325    92    42240.4696    49342.7814   200423   16.81%
Elapsed time = 126.88 sec. (33268.56 ticks, tree = 239.74 MB, solutions = 19)
  56800 29754        cutoff          42907.2218    49307.8792   248782   14.92%
  58667 18247        cutoff          42907.2218    49307.8792   163285   14.92%
  60430 21757    48837.7330    80    42936.3825    49285.8740   268668   14.79%
  62069 22355    42913.7732    41    42936.3825    49200.7195   192253   14.59%
  63800 22703    47158.8614    86    42936.3825    49200.7195   304464   14.59%
  65631 21884    48055.5999    86    42936.3825    49200.7195   188774   14.59%
  67599 23030    46190.5939    64    42936.3825    49200.7195   195426   14.59%
  69468 24675    42466.1342    27    42936.3825    49200.7195   206471   14.59%
  71386 22114    43075.2620    60    42936.3825    49197.1077   272355   14.58%
  73265 23888    48263.3640   114    42936.3825    49197.1077   200181   14.58%
Elapsed time = 177.61 sec. (42811.63 ticks, tree = 239.01 MB, solutions = 25)
  75251 21715    47153.4315    94    42936.3825    49197.1077   186285   14.58%
  77289 22813    46262.8863   102    42936.3825    49197.1077   298722   14.58%
  79258 27769    42336.4121    57    42936.3825    49197.1077   233362   14.58%
  81097 29047    42359.2758    44    42936.3825    49197.1077   246035   14.58%
  83017 22106    48834.0012    88    42936.3825    49197.1077   290363   14.58%
  84836 29103    43041.0955    61    42936.3825    49197.1077   256228   14.58%
  86710 22298        cutoff          42936.3825    49197.1077   289204   14.58%
  88515 24829        cutoff          42936.3825    49197.1077   208898   14.58%
  90269 22383        cutoff          42936.3825    49197.1077   289832   14.58%
  91993 28157    42315.5424    59    42936.3825    49197.1077   238604   14.58%
Elapsed time = 223.00 sec. (52351.23 ticks, tree = 281.71 MB, solutions = 26)
  93723 30856        cutoff          42936.3825    49197.1077   264094   14.58%
  95384 27672    42372.6314    55    42936.3825    49197.1077   235257   14.58%
  97016 31751    42778.7819    60    42936.3825    49197.1077   263602   14.58%
  98829 26713    43068.1397    64    42936.3825    49197.1077   360757   14.58%
 100842 31894    43080.1779    66    42936.3825    49197.1077   264551   14.58%
 103069 23843        cutoff          42936.3825    49197.1077   319870   14.58%
 105365 28434    46573.8321    83    42936.3825    49197.1077   237303   14.58%
 107564 23681    42990.4430    63    42936.3825    49197.1077   305730   14.58%
 109878 23172    43074.9912    55    42936.3825    49197.1077   286220   14.58%
 112225 23136    48803.1416   103    42936.3825    49197.1077   297964   14.58%
Elapsed time = 246.97 sec. (61891.40 ticks, tree = 201.00 MB, solutions = 27)
 114346 24002    43075.2620    61    42936.3825    49197.1077   318987   14.58%
*115994 22831      integral     0    43005.8913    49197.1077   293522   14.40%
 116321 30773    46303.9173   102    43005.8913    49197.1077   415770   14.40%
 118316 23705    48835.8210   100    43005.8913    49197.1077   316858   14.40%
 120042 27269    43073.2294    61    43005.8913    49197.1077   367868   14.40%
 121460 26320    46323.5185    99    43005.8913    49197.1077   350335   14.40%
 122879 28745    47143.6312    99    43005.8913    49197.1077   383750   14.40%
 124306 31150    43056.0039    66    43005.8913    49197.1077   419764   14.40%
 125529 29561    43076.0317    58    43005.8913    49197.1077   397606   14.40%
 126796 28940    43075.2620    59    43005.8913    49197.1077   386243   14.40%
 127957 30951    42976.4735    41    43005.8913    49197.1077   421935   14.40%
Elapsed time = 254.92 sec. (71431.52 ticks, tree = 274.89 MB, solutions = 27)
 128918 27039    48822.2564   106    43005.8913    49197.1077   366085   14.40%
 129683 31078    43054.3454    45    43005.8913    49197.1077   423266   14.40%
 130171 31150    43075.2620    30    43005.8913    49197.1077   423784   14.40%

GUB cover cuts applied:  2
Clique cuts applied:  42
Cover cuts applied:  12
Implied bound cuts applied:  85
Flow cuts applied:  1257
Mixed integer rounding cuts applied:  507
Gomory fractional cuts applied:  87

Root node processing (before b&c):
  Real time             =    8.78 sec. (5870.10 ticks)
Parallel b&c, 32 threads:
  Real time             =  249.16 sec. (69587.40 ticks)
  Sync time (average)   =    1.53 sec.
  Wait time (average)   =    0.25 sec.
                          ------------
Total (root+branch&cut) =  257.94 sec. (75457.49 ticks)

Solution pool: 27 solutions saved.

MIP - Deterministic time limit exceeded, integer feasible:  Objective =  4.3005891326e+04
Current MIP best bound =  4.9010718809e+04 (gap = 6004.83, 13.96%)
Solution time =  257.97 sec.  Iterations = 783864  Nodes = 130303 (62250)
Deterministic time = 75457.65 ticks  (292.51 ticks/sec)

CPLEX> Incumbent solution written to file 'C:\Users\llavin\Desktop\test919\logs\tmplru0o9bx.cplex.sol'.
CPLEX> Exporting results... 
